c preprocessed version of 1oai_graph, 57 vertices, 518 edges
p td 57 518
0 1
0 4
0 20
0 3
2 1
5 1
21 1
20 1
26 1
4 1
25 1
22 1
1 38
1 37
1 34
1 31
1 28
3 2
2 38
2 39
2 37
2 22
2 25
2 4
2 26
2 20
2 21
2 18
2 14
2 8
2 9
2 5
2 6
3 4
3 21
5 4
9 4
14 4
16 4
18 4
21 4
20 4
23 4
26 4
4 38
4 37
4 28
4 22
4 25
6 5
5 17
5 27
5 13
5 40
5 30
5 35
5 7
5 38
5 41
5 39
5 36
5 37
5 31
5 28
5 22
5 25
5 26
5 23
5 21
5 16
5 11
5 14
5 12
5 8
5 9
6 7
6 38
6 39
6 22
6 26
6 14
6 12
6 8
6 9
8 7
12 7
14 7
16 7
26 7
22 7
31 7
36 7
39 7
41 7
33 7
38 7
7 27
7 13
7 44
7 40
7 30
7 35
7 42
9 8
8 10
8 26
8 21
8 16
8 11
8 14
8 12
9 10
9 17
9 30
9 38
9 22
9 26
9 23
9 20
9 21
9 18
9 16
9 11
9 14
9 12
11 10
18 10
21 10
15 10
19 10
12 11
14 11
11 15
11 17
11 27
11 13
11 30
11 26
11 23
11 18
11 16
12 13
12 40
12 30
12 38
12 41
12 39
12 22
12 26
12 16
12 14
14 13
16 13
23 13
38 13
35 13
30 13
40 13
44 13
32 13
13 15
13 17
13 48
13 27
13 45
13 47
13 46
13 43
14 15
14 17
14 27
14 32
14 40
14 30
14 35
14 42
14 38
14 39
14 31
14 22
14 25
14 26
14 23
14 18
14 16
16 15
18 15
23 15
30 15
32 15
47 15
27 15
29 15
48 15
24 15
17 15
15 19
16 17
16 24
16 48
16 29
16 27
16 32
16 40
16 30
16 35
16 38
16 28
16 22
16 25
16 26
16 23
16 20
16 21
16 18
18 17
20 17
23 17
26 17
25 17
28 17
38 17
35 17
30 17
32 17
45 17
27 17
29 17
48 17
24 17
17 19
18 19
18 24
18 29
18 27
18 25
18 26
18 23
18 20
18 21
20 19
23 19
29 19
48 19
24 19
21 20
20 24
20 29
20 27
20 25
20 26
20 23
21 22
21 25
21 26
21 23
23 22
26 22
25 22
22 30
22 35
22 38
22 39
22 36
22 37
22 34
22 31
22 28
23 24
23 48
23 29
23 27
23 32
23 30
23 35
23 38
23 28
23 25
23 26
25 24
27 24
29 24
48 24
26 25
25 29
25 27
25 32
25 30
25 35
25 31
25 28
26 27
26 30
26 38
26 39
26 37
28 27
31 27
38 27
35 27
30 27
40 27
44 27
32 27
46 27
47 27
45 27
27 48
27 29
28 29
28 45
28 32
28 30
28 35
28 38
28 33
28 37
28 34
28 31
30 29
32 29
45 29
29 48
31 30
39 30
33 30
38 30
42 30
35 30
30 45
30 43
30 32
30 44
30 40
31 32
31 44
31 35
31 42
31 38
31 33
31 39
31 36
31 37
31 34
33 32
35 32
40 32
44 32
32 45
32 47
32 46
32 43
34 33
36 33
39 33
41 33
33 44
33 35
33 42
33 38
34 35
34 38
34 36
34 37
36 35
41 35
38 35
42 35
35 45
35 46
35 44
35 40
37 36
36 42
36 38
36 41
36 39
37 38
37 39
39 38
41 38
38 40
38 42
39 40
39 42
39 41
41 40
42 40
40 43
40 44
41 42
42 43
42 44
44 43
43 45
43 47
43 46
44 45
44 46
46 45
47 45
46 47
47 48
49 37
49 1
49 22
49 4
49 26
49 20
49 21
49 9
49 5
49 56
49 2
49 55
49 54
49 53
49 52
49 51
49 50
49 3
49 0
50 37
50 1
50 22
50 4
50 2
50 55
50 54
50 53
50 52
50 51
50 3
51 39
51 36
51 37
51 22
51 5
51 6
51 2
51 55
51 54
51 53
51 52
52 38
52 39
52 36
52 37
52 34
52 31
52 1
52 22
52 4
52 26
52 21
52 9
52 5
52 56
52 2
52 55
52 54
52 53
52 3
53 37
53 22
53 4
53 26
53 21
53 9
53 6
53 56
53 2
53 55
53 54
53 3
53 0
54 39
54 22
54 12
54 8
54 5
54 6
54 56
54 2
54 55
55 30
55 7
55 38
55 33
55 41
55 39
55 36
55 37
55 31
55 1
55 22
55 4
55 26
55 21
55 14
55 12
55 9
55 5
55 6
55 56
55 2
56 50
56 51
56 2
56 10
56 4
56 26
56 21
56 12
56 8
56 9
56 5
56 6
